WARNING: for repeatability, setting FPU to use double precision
============================[ Problem Statistics ]=============================
|                                                                             |
|  Number of variables:           100                                         |
|  Number of clauses:             449                                         |
|  Parse time:                   0.00 s                                       |
|  Eliminated clauses:           0.00 Mb                                      |
|  Simplification time:          0.00 s                                       |
|                                                                             |
============================[ Search Statistics ]==============================
| Conflicts |          ORIGINAL         |          LEARNT          | Progress |
|           |    Vars  Clauses Literals |    Limit  Clauses Lit/Cl |          |
===============================================================================
|       100 |      97      446     1383 |      163      100      7 |  0.010 % |
|       250 |      97      446     1383 |      179      165      6 |  0.010 % |
===============================================================================
restarts              : 3
conflicts             : 308            (94247 /sec)
decisions             : 374            (0.00 % random) (114443 /sec)
propagations          : 7554           (2311506 /sec)
conflict literals     : 2009           (21.68 % deleted)
Memory used           : 13.00 MB
CPU time              : 0.003268 s

SATISFIABLE
